(set-logic QF_S)
(set-option :strings-exp true)
(set-option :produce-models true)
(declare-fun sigmaStar_0 () String)
(declare-fun sigmaStar_1 () String)
(declare-fun sigmaStar_2 () String)
(declare-fun literal_13 () String)
(assert (= literal_13 "\x66\x69\x72\x73\x74\x6e\x61\x6d\x65\x5c\x74\x6c\x61\x73\x74\x6e\x61\x6d\x65\x5c\x74\x69\x64\x6e\x75\x6d\x62\x65\x72\x5c\x74"))
(assert (str.in.re literal_13 (re.++ (re.* re.allchar) (re.++ (str.to.re "\x5c\x3c\x53\x43\x52\x49\x50\x54") (re.* re.allchar)))))
(check-sat)
(get-model)
